[VALIDATOR STDOUT]
Checking plan: /home/jfan5/Safety-gen/runs/benchmark/optic/ferry_20260129_162355/ferry/optic_results/ferry-l47-c24-s47001.plan
Plan executed successfully - checking goal
Plan valid
Final value: 113 

Successful plans:
Value: 113
 /home/jfan5/Safety-gen/runs/benchmark/optic/ferry_20260129_162355/ferry/optic_results/ferry-l47-c24-s47001.plan 113
